NPROCS=0
This instance is clustered!
Gurobi Optimizer version 9.0.0 build v9.0.0rc2 (linux64)
Optimize a model with 32 rows, 257 columns and 512 nonzeros
Model fingerprint: 0x470dd460
Variable types: 1 continuous, 256 integer (256 binary)
Coefficient statistics:
  Matrix range     [1e+00, 1e+00]
  Objective range  [1e+00, 2e+02]
  Bounds range     [1e+00, 1e+00]
  RHS range        [1e+00, 1e+00]
Presolve removed 2 rows and 45 columns
Presolve time: 0.00s
Presolved: 30 rows, 212 columns, 422 nonzeros
Variable types: 1 continuous, 211 integer (211 binary)

Root relaxation: objective 2.765864e+02, 22 iterations, 0.00 seconds

    Nodes    |    Current Node    |     Objective Bounds      |     Work
 Expl Unexpl |  Obj  Depth IntInf | Incumbent    BestBd   Gap | It/Node Time

     0     0  417.37869    0   16          -  417.37869      -     -    0s
 done with super cut 0
 done with super cut 1
H    0     0                     700.4169328  417.37869  40.4%     -    0s
     0     0  485.89664    0   14  700.41693  485.89664  30.6%     -    0s
 done with super cut 2
 done with super cut 3
 done with super cut 4
H    0     0                     659.2759598  485.89664  26.3%     -    1s
 done with super cut 5
     0     0  487.97184    0   32  659.27596  487.97184  26.0%     -    2s
 done with super cut 6
 done with super cut 7
H    0     0                     635.5476939  487.97184  23.2%     -    5s
 done with super cut 8
     0     0  490.17705    0   35  635.54769  490.17705  22.9%     -    6s
 done with super cut 9
H    0     0                     613.2263343  490.17705  20.1%     -    8s
 done with super cut 10
     0     2  496.77624    0   31  613.22633  496.77624  19.0%     -   10s

Cutting planes:
  Gomory: 1
  Lazy constraints: 383

Explored 12013 nodes (81076 simplex iterations) in 11.89 seconds
Thread count was 12 (of 12 available processors)

Solution count 4: 613.226 635.548 659.276 700.417 

Optimal solution found (tolerance 1.00e-04)
Best objective 6.132263343242e+02, best bound 6.132263343242e+02, gap 0.0000%

User-callback calls 24822, time in user-callback 10.89 sec
/projects/academic/josewalt/caigao/RRARP_BD/BendersDecomp/ret/model_outs/n_14_m_7_algo_4.out
 =====>>>>> Solution is written to file in <../ret/model_outs> !!!
===>> All Done!
